1678480
31,21,3,1,47,20,4,48,2,27,17,9,58,15,68,35,51,39,62,37,53,50,28,36,59,16,63,24,61,12,42,32,56,40,5,60,6,11,66,26,55,34,46,43,7,38,67,64,41,25,30,29,23,49,19,54,13,65,45,8,44,14,10,18,57,33,52,22